\ Model idol-model
\ LP format - for model browsing. Use MPS format to capture full model detail.
\ Signature: 0xc27655aa393e3d3f
Minimize
  10 C0000000 + 201 C0000001 + 840 C0000002 + 674 C0000003 + 1000 C0000004
   + 11 C0000005 + 976 C0000006 + 489 C0000007 + 754 C0000008
   + 961 C0000009 + 786 C0000010 + 857 C0000011 + 442 C0000012
   + 951 C0000013 + 363 C0000014 + 975 C0000015 + 924 C0000016
   + 389 C0000017 + 118 C0000018 + 77 C0000019 + 84 C0000020 + 774 C0000021
   + 604 C0000022 + 102 C0000023 + 316 C0000024 + 543 C0000025
   + 628 C0000026 + 381 C0000027 + 910 C0000028 + 621 C0000029
Subject To
 R0000000: 526 C0000000 + 699 C0000001 + 288 C0000002 + 579 C0000003
   + 870 C0000004 + 436 C0000005 + 679 C0000006 + 708 C0000007
   + 461 C0000008 + 910 C0000009 + 331 C0000010 + 375 C0000011
   + 131 C0000012 + 320 C0000013 + 179 C0000014 + 664 C0000015
   + 665 C0000016 + 625 C0000017 + 553 C0000018 + 881 C0000019
   + 658 C0000020 + 201 C0000021 + 98 C0000022 + 503 C0000023
   + 788 C0000024 + 567 C0000025 + 868 C0000026 + 429 C0000027
   + 134 C0000028 + 707 C0000029 <= 7916
 IC0: C0000000 + x0 <= 1
 IC1: C0000001 + x1 <= 1
 IC2: C0000002 + x2 <= 1
 IC3: C0000003 + x3 <= 1
 IC4: C0000004 + x4 <= 1
 IC5: C0000005 + x5 <= 1
 IC6: C0000006 + x6 <= 1
 IC7: C0000007 + x7 <= 1
 IC8: C0000008 + x8 <= 1
 IC9: C0000009 + x9 <= 1
 IC10: C0000010 + x10 <= 1
 IC11: C0000011 + x11 <= 1
 IC12: C0000012 + x12 <= 1
 IC13: C0000013 + x13 <= 1
 IC14: C0000014 + x14 <= 1
 IC15: C0000015 + x15 <= 1
 IC16: C0000016 + x16 <= 1
 IC17: C0000017 + x17 <= 1
 IC18: C0000018 + x18 <= 1
 IC19: C0000019 + x19 <= 1
 IC20: C0000020 + x20 <= 1
 IC21: C0000021 + x21 <= 1
 IC22: C0000022 + x22 <= 1
 IC23: C0000023 + x23 <= 1
 IC24: C0000024 + x24 <= 1
 IC25: C0000025 + x25 <= 1
 IC26: C0000026 + x26 <= 1
 IC27: C0000027 + x27 <= 1
 IC28: C0000028 + x28 <= 1
 IC29: C0000029 + x29 <= 1
 interdictionBudget: 904 x0 + 954 x1 + 280 x2 + 146 x3 + 281 x4 + 16 x5
   + 811 x6 + 806 x7 + 341 x8 + 532 x9 + 638 x10 + 828 x11 + 783 x12
   + 916 x13 + 23 x14 + 244 x15 + 871 x16 + 420 x17 + 759 x18 + 506 x19
   + 384 x20 + 482 x21 + 288 x22 + 714 x23 + 297 x24 + 912 x25 + 426 x26
   + 401 x27 + 266 x28 + 87 x29 <= 7658
 c_122: - 10 C0000000 - 201 C0000001 - 840 C0000002 - 674 C0000003
   - 1000 C0000004 - 11 C0000005 - 976 C0000006 - 489 C0000007
   - 754 C0000008 - 961 C0000009 - 786 C0000010 - 857 C0000011
   - 442 C0000012 - 951 C0000013 - 363 C0000014 - 975 C0000015
   - 924 C0000016 - 389 C0000017 - 118 C0000018 - 77 C0000019 - 84 C0000020
   - 774 C0000021 - 604 C0000022 - 102 C0000023 - 316 C0000024
   - 543 C0000025 - 628 C0000026 - 381 C0000027 - 910 C0000028
   - 621 C0000029 <= 0
Bounds
Binaries
 C0000000 C0000001 C0000002 C0000003 C0000004 C0000005 C0000006 C0000007
 C0000008 C0000009 C0000010 C0000011 C0000012 C0000013 C0000014 C0000015
 C0000016 C0000017 C0000018 C0000019 C0000020 C0000021 C0000022 C0000023
 C0000024 C0000025 C0000026 C0000027 C0000028 C0000029 x0 x1 x2 x3 x4 x5 x6
 x7 x8 x9 x10 x11 x12 x13 x14 x15 x16 x17 x18 x19 x20 x21 x22 x23 x24 x25
 x26 x27 x28 x29
End
